c Standarized MaxSat Instance
c{
c "sha1sum": "3cdccbef6de5a880f7e9601aa82ca94c9e00fb73",
c "nvars": 280,
c "ncls": 1307,
c "total_lits": 3257,
c "nhards": 364,
c "nhard_nlits": 812,
c "nhard_len_stats":
c    { "min": 2,
c      "max": 5,
c      "ave": 2.2308,
c      "stddev": 0.7994 },
c "nsofts": 943,
c "nsoft_nlits": 2445,
c "nsoft_len_stats":
c    { "min": 1,
c      "max": 5,
c      "ave": 2.5928,
c      "stddev": 1.0779 },
c "nsoft_wts": 1,
c "soft_wt_stats":
c    { "min": 1,
c      "max": 1,
c      "ave": 1.0000,
c      "stddev": 0.0000 }
c}
c------------------------------------------------------------
c Original instance: kbtree_wcnf.s-suppc_w9-s7-h3-d5/70/kbtree9_7_3_5_70_6.wcsp
c Format: Partial Max-SAT (wcnf)
c Encoding: [SEQUENTIAL] + Support (less SUM 2^#literals direction)
h 1 2 3 4 5 0
h 6 7 8 9 10 0
h 11 12 13 14 15 0
h 16 17 18 19 20 0
h 21 22 23 24 25 0
h 26 27 28 29 30 0
h 31 32 33 34 35 0
h 36 37 38 39 40 0
h 41 42 43 44 45 0
h 46 47 48 49 50 0
h 51 52 53 54 55 0
h 56 57 58 59 60 0
h 61 62 63 64 65 0
h 66 67 68 69 70 0
h 71 72 73 74 75 0
h 76 77 78 79 80 0
h 81 82 83 84 85 0
h 86 87 88 89 90 0
h 91 92 93 94 95 0
h 96 97 98 99 100 0
h 101 102 103 104 105 0
h 106 107 108 109 110 0
h 111 112 113 114 115 0
h 116 117 118 119 120 0
h 121 122 123 124 125 0
h 126 127 128 129 130 0
h 131 132 133 134 135 0
h 136 137 138 139 140 0
h -1 -142 0
h -2 142 0
h -2 -143 0
h -3 143 0
h -3 -144 0
h -4 144 0
h -4 -145 0
h -5 145 0
h -6 -147 0
h -7 147 0
h -7 -148 0
h -8 148 0
h -8 -149 0
h -9 149 0
h -9 -150 0
h -10 150 0
h -11 -152 0
h -12 152 0
h -12 -153 0
h -13 153 0
h -13 -154 0
h -14 154 0
h -14 -155 0
h -15 155 0
h -16 -157 0
h -17 157 0
h -17 -158 0
h -18 158 0
h -18 -159 0
h -19 159 0
h -19 -160 0
h -20 160 0
h -21 -162 0
h -22 162 0
h -22 -163 0
h -23 163 0
h -23 -164 0
h -24 164 0
h -24 -165 0
h -25 165 0
h -26 -167 0
h -27 167 0
h -27 -168 0
h -28 168 0
h -28 -169 0
h -29 169 0
h -29 -170 0
h -30 170 0
h -31 -172 0
h -32 172 0
h -32 -173 0
h -33 173 0
h -33 -174 0
h -34 174 0
h -34 -175 0
h -35 175 0
h -36 -177 0
h -37 177 0
h -37 -178 0
h -38 178 0
h -38 -179 0
h -39 179 0
h -39 -180 0
h -40 180 0
h -41 -182 0
h -42 182 0
h -42 -183 0
h -43 183 0
h -43 -184 0
h -44 184 0
h -44 -185 0
h -45 185 0
h -46 -187 0
h -47 187 0
h -47 -188 0
h -48 188 0
h -48 -189 0
h -49 189 0
h -49 -190 0
h -50 190 0
h -51 -192 0
h -52 192 0
h -52 -193 0
h -53 193 0
h -53 -194 0
h -54 194 0
h -54 -195 0
h -55 195 0
h -56 -197 0
h -57 197 0
h -57 -198 0
h -58 198 0
h -58 -199 0
h -59 199 0
h -59 -200 0
h -60 200 0
h -61 -202 0
h -62 202 0
h -62 -203 0
h -63 203 0
h -63 -204 0
h -64 204 0
h -64 -205 0
h -65 205 0
h -66 -207 0
h -67 207 0
h -67 -208 0
h -68 208 0
h -68 -209 0
h -69 209 0
h -69 -210 0
h -70 210 0
h -71 -212 0
h -72 212 0
h -72 -213 0
h -73 213 0
h -73 -214 0
h -74 214 0
h -74 -215 0
h -75 215 0
h -76 -217 0
h -77 217 0
h -77 -218 0
h -78 218 0
h -78 -219 0
h -79 219 0
h -79 -220 0
h -80 220 0
h -81 -222 0
h -82 222 0
h -82 -223 0
h -83 223 0
h -83 -224 0
h -84 224 0
h -84 -225 0
h -85 225 0
h -86 -227 0
h -87 227 0
h -87 -228 0
h -88 228 0
h -88 -229 0
h -89 229 0
h -89 -230 0
h -90 230 0
h -91 -232 0
h -92 232 0
h -92 -233 0
h -93 233 0
h -93 -234 0
h -94 234 0
h -94 -235 0
h -95 235 0
h -96 -237 0
h -97 237 0
h -97 -238 0
h -98 238 0
h -98 -239 0
h -99 239 0
h -99 -240 0
h -100 240 0
h -101 -242 0
h -102 242 0
h -102 -243 0
h -103 243 0
h -103 -244 0
h -104 244 0
h -104 -245 0
h -105 245 0
h -106 -247 0
h -107 247 0
h -107 -248 0
h -108 248 0
h -108 -249 0
h -109 249 0
h -109 -250 0
h -110 250 0
h -111 -252 0
h -112 252 0
h -112 -253 0
h -113 253 0
h -113 -254 0
h -114 254 0
h -114 -255 0
h -115 255 0
h -116 -257 0
h -117 257 0
h -117 -258 0
h -118 258 0
h -118 -259 0
h -119 259 0
h -119 -260 0
h -120 260 0
h -121 -262 0
h -122 262 0
h -122 -263 0
h -123 263 0
h -123 -264 0
h -124 264 0
h -124 -265 0
h -125 265 0
h -126 -267 0
h -127 267 0
h -127 -268 0
h -128 268 0
h -128 -269 0
h -129 269 0
h -129 -270 0
h -130 270 0
h -131 -272 0
h -132 272 0
h -132 -273 0
h -133 273 0
h -133 -274 0
h -134 274 0
h -134 -275 0
h -135 275 0
h -136 -277 0
h -137 277 0
h -137 -278 0
h -138 278 0
h -138 -279 0
h -139 279 0
h -139 -280 0
h -140 280 0
h -142 141 0
h -143 142 0
h -144 143 0
h -145 144 0
h -147 146 0
h -148 147 0
h -149 148 0
h -150 149 0
h -152 151 0
h -153 152 0
h -154 153 0
h -155 154 0
h -157 156 0
h -158 157 0
h -159 158 0
h -160 159 0
h -162 161 0
h -163 162 0
h -164 163 0
h -165 164 0
h -167 166 0
h -168 167 0
h -169 168 0
h -170 169 0
h -172 171 0
h -173 172 0
h -174 173 0
h -175 174 0
h -177 176 0
h -178 177 0
h -179 178 0
h -180 179 0
h -182 181 0
h -183 182 0
h -184 183 0
h -185 184 0
h -187 186 0
h -188 187 0
h -189 188 0
h -190 189 0
h -192 191 0
h -193 192 0
h -194 193 0
h -195 194 0
h -197 196 0
h -198 197 0
h -199 198 0
h -200 199 0
h -202 201 0
h -203 202 0
h -204 203 0
h -205 204 0
h -207 206 0
h -208 207 0
h -209 208 0
h -210 209 0
h -212 211 0
h -213 212 0
h -214 213 0
h -215 214 0
h -217 216 0
h -218 217 0
h -219 218 0
h -220 219 0
h -222 221 0
h -223 222 0
h -224 223 0
h -225 224 0
h -227 226 0
h -228 227 0
h -229 228 0
h -230 229 0
h -232 231 0
h -233 232 0
h -234 233 0
h -235 234 0
h -237 236 0
h -238 237 0
h -239 238 0
h -240 239 0
h -242 241 0
h -243 242 0
h -244 243 0
h -245 244 0
h -247 246 0
h -248 247 0
h -249 248 0
h -250 249 0
h -252 251 0
h -253 252 0
h -254 253 0
h -255 254 0
h -257 256 0
h -258 257 0
h -259 258 0
h -260 259 0
h -262 261 0
h -263 262 0
h -264 263 0
h -265 264 0
h -267 266 0
h -268 267 0
h -269 268 0
h -270 269 0
h -272 271 0
h -273 272 0
h -274 273 0
h -275 274 0
h -277 276 0
h -278 277 0
h -279 278 0
h -280 279 0
1 -91 24 25 0
1 -92 24 0
1 -93 21 23 25 0
1 -94 21 24 0
1 -95 0
1 -11 137 138 139 0
1 -12 138 140 0
1 -13 136 137 140 0
1 -14 0
1 -15 0
1 -1 57 0
1 -2 56 59 0
1 -3 56 59 60 0
1 -4 58 0
1 -5 57 0
1 -21 96 98 0
1 -22 0
1 -23 98 99 100 0
1 -24 99 100 0
1 -25 97 0
1 -126 32 33 0
1 -127 35 0
1 -128 34 35 0
1 -129 32 33 35 0
1 -130 0
1 -11 135 0
1 -12 132 133 0
1 -13 131 133 0
1 -14 131 133 134 0
1 -15 0
1 -41 48 0
1 -42 48 50 0
1 -43 46 49 50 0
1 -44 47 0
1 -45 47 0
1 -56 17 18 20 0
1 -57 17 19 0
1 -58 19 0
1 -59 16 0
1 -60 16 0
1 -61 36 40 0
1 -62 37 0
1 -63 37 39 40 0
1 -64 38 0
1 -65 37 0
1 -16 91 93 94 0
1 -17 95 0
1 -18 91 93 94 95 0
1 -19 0
1 -20 0
1 -26 32 33 34 35 0
1 -27 0
1 -28 31 32 0
1 -29 31 0
1 -30 35 0
1 -1 0
1 -2 6 8 9 0
1 -3 8 9 10 0
1 -4 10 0
1 -5 7 0
1 -1 48 49 0
1 -2 47 48 50 0
1 -3 49 0
1 -4 47 0
1 -5 46 0
1 -136 104 0
1 -137 103 104 0
1 -138 102 105 0
1 -139 0
1 -140 101 104 105 0
1 -1 0
1 -2 14 0
1 -3 14 0
1 -4 11 12 13 14 0
1 -5 12 15 0
1 -11 102 103 105 0
1 -12 102 105 0
1 -13 0
1 -14 0
1 -15 102 103 104 0
1 -111 11 14 0
1 -112 13 15 0
1 -113 14 0
1 -114 12 13 0
1 -115 12 0
1 -41 27 0
1 -42 28 29 0
1 -43 0
1 -44 29 0
1 -45 26 28 29 30 0
1 -61 46 48 50 0
1 -62 48 0
1 -63 46 0
1 -64 46 48 49 0
1 -65 0
1 -131 37 39 40 0
1 -132 37 0
1 -133 36 0
1 -134 36 37 0
1 -135 38 0
1 -41 99 100 0
1 -42 96 98 99 0
1 -43 100 0
1 -44 96 97 0
1 -45 0
1 -51 56 59 60 0
1 -52 56 57 58 0
1 -53 57 60 0
1 -54 0
1 -55 0
1 -126 28 30 0
1 -127 26 30 0
1 -128 26 0
1 -129 0
1 -130 27 28 29 0
1 -96 0
1 -97 125 0
1 -98 121 123 124 125 0
1 -99 124 125 0
1 -100 124 0
1 -36 75 0
1 -37 71 72 73 0
1 -38 72 0
1 -39 74 0
1 -40 73 75 0
1 -1 31 34 0
1 -2 31 0
1 -3 31 32 33 0
1 -4 31 35 0
1 -5 0
1 -106 21 22 0
1 -107 0
1 -108 23 24 0
1 -109 21 22 0
1 -110 21 25 0
1 -26 79 80 0
1 -27 0
1 -28 76 77 0
1 -29 78 79 80 0
1 -30 78 0
1 -81 0
1 -82 59 60 0
1 -83 57 60 0
1 -84 56 58 59 60 0
1 -85 0
1 -116 12 14 0
1 -117 14 0
1 -118 0
1 -119 11 12 13 0
1 -120 13 15 0
1 -61 22 23 25 0
1 -62 24 0
1 -63 22 0
1 -64 22 23 25 0
1 -65 0
1 -106 43 45 0
1 -107 41 0
1 -108 42 44 0
1 -109 44 0
1 -110 41 43 0
1 -111 26 30 0
1 -112 28 0
1 -113 26 30 0
1 -114 27 29 0
1 -115 29 0
1 -46 13 14 0
1 -47 12 0
1 -48 15 0
1 -49 11 13 14 0
1 -50 14 0
1 -46 88 90 0
1 -47 86 0
1 -48 0
1 -49 86 89 0
1 -50 86 87 90 0
1 -136 128 0
1 -137 0
1 -138 126 128 129 0
1 -139 129 0
1 -140 126 127 130 0
1 -101 115 0
1 -102 0
1 -103 113 114 0
1 -104 112 114 0
1 -105 111 112 114 0
1 -86 91 0
1 -87 92 94 95 0
1 -88 92 93 0
1 -89 0
1 -90 91 94 0
1 -26 72 73 75 0
1 -27 71 73 0
1 -28 74 0
1 -29 74 0
1 -30 75 0
1 -66 33 0
1 -67 31 32 35 0
1 -68 31 35 0
1 -69 33 34 0
1 -70 0
1 -61 56 60 0
1 -62 59 0
1 -63 56 57 58 0
1 -64 59 0
1 -65 60 0
1 -111 38 39 0
1 -112 37 39 0
1 -113 0
1 -114 38 40 0
1 -115 36 37 0
1 -56 67 68 70 0
1 -57 67 69 0
1 -58 0
1 -59 66 67 0
1 -60 68 0
1 -1 94 0
1 -2 91 93 95 0
1 -3 92 93 94 0
1 -4 93 0
1 -5 0
1 -6 37 39 0
1 -7 38 40 0
1 -8 37 0
1 -9 0
1 -10 36 37 39 0
1 -36 17 18 0
1 -37 0
1 -38 17 18 20 0
1 -39 16 0
1 -40 16 17 0
1 -31 81 82 84 0
1 -32 81 82 84 0
1 -33 0
1 -34 81 83 0
1 -35 0
1 -61 95 0
1 -62 91 93 94 95 0
1 -63 93 95 0
1 -64 0
1 -65 94 0
1 -86 0
1 -87 16 19 0
1 -88 16 19 0
1 -89 16 17 18 0
1 -90 17 0
1 -51 21 22 0
1 -52 0
1 -53 23 24 25 0
1 -54 24 0
1 -55 22 24 0
1 -101 133 134 135 0
1 -102 133 134 0
1 -103 131 132 0
1 -104 0
1 -105 131 0
1 -26 139 0
1 -27 138 0
1 -28 139 0
1 -29 136 137 140 0
1 -30 136 138 0
1 -131 137 0
1 -132 140 0
1 -133 136 140 0
1 -134 0
1 -135 136 138 139 140 0
1 -46 6 9 10 0
1 -47 6 10 0
1 -48 8 0
1 -49 7 10 0
1 -50 0
1 -81 87 0
1 -82 90 0
1 -83 86 88 89 90 0
1 -84 0
1 -85 88 90 0
1 -6 34 0
1 -7 0
1 -8 33 35 0
1 -9 31 32 33 35 0
1 -10 35 0
1 -131 0
1 -132 28 29 0
1 -133 29 0
1 -134 28 30 0
1 -135 26 28 30 0
1 -106 97 98 99 0
1 -107 97 100 0
1 -108 100 0
1 -109 97 99 0
1 -110 0
1 -1 22 0
1 -2 24 25 0
1 -3 21 23 24 0
1 -4 21 24 0
1 -5 0
1 -136 47 48 0
1 -137 0
1 -138 0
1 -139 46 47 50 0
1 -140 47 48 49 0
1 -46 82 0
1 -47 0
1 -48 82 85 0
1 -49 81 82 84 85 0
1 -50 84 0
1 -26 0
1 -27 101 0
1 -28 103 104 105 0
1 -29 102 105 0
1 -30 102 105 0
1 -121 109 0
1 -122 107 110 0
1 -123 110 0
1 -124 109 0
1 -125 106 108 110 0
1 -21 6 7 8 10 0
1 -22 7 10 0
1 -23 10 0
1 -24 0
1 -25 9 0
1 -111 97 100 0
1 -112 98 99 100 0
1 -113 0
1 -114 96 99 100 0
1 -115 0
1 -101 36 38 0
1 -102 0
1 -103 38 39 40 0
1 -104 40 0
1 -105 39 40 0
1 -121 0
1 -122 11 12 13 15 0
1 -123 11 13 0
1 -124 13 0
1 -125 14 0
1 -51 33 35 0
1 -52 34 35 0
1 -53 32 33 35 0
1 -54 0
1 -55 34 0
1 -96 116 117 119 120 0
1 -97 117 0
1 -98 117 0
1 -99 120 0
1 -100 118 0
1 -56 0
1 -57 21 25 0
1 -58 22 23 0
1 -59 22 24 25 0
1 -60 23 0
1 -131 46 0
1 -132 47 49 50 0
1 -133 46 48 0
1 -134 0
1 -135 48 50 0
1 -1 0
1 -2 67 69 70 0
1 -3 68 0
1 -4 69 0
1 -5 67 69 70 0
1 -26 3 0
1 -27 1 0
1 -28 3 0
1 -29 2 3 4 5 0
1 -30 3 0
1 -36 14 0
1 -37 12 13 0
1 -38 11 15 0
1 -39 13 0
1 -40 12 15 0
1 -96 38 0
1 -97 37 38 39 0
1 -98 37 38 0
1 -99 36 40 0
1 -100 0
1 -66 71 0
1 -67 71 72 74 75 0
1 -68 71 74 0
1 -69 72 0
1 -70 0
1 -51 29 30 0
1 -52 28 29 0
1 -53 27 0
1 -54 26 30 0
1 -55 26 0
1 -86 3 5 0
1 -87 4 0
1 -88 4 0
1 -89 1 5 0
1 -90 1 2 0
1 -16 8 9 10 0
1 -17 8 10 0
1 -18 7 8 0
1 -19 0
1 -20 9 0
1 -46 108 0
1 -47 106 0
1 -48 106 110 0
1 -49 107 108 110 0
1 -50 109 0
1 -21 0
1 -22 32 33 0
1 -23 33 34 35 0
1 -24 31 0
1 -25 31 35 0
1 -16 0
1 -17 4 0
1 -18 2 3 0
1 -19 1 3 0
1 -20 3 4 5 0
1 -11 7 9 0
1 -12 0
1 -13 7 8 0
1 -14 6 8 9 0
1 -15 7 0
1 -1 71 73 74 0
1 -2 71 72 73 0
1 -3 73 75 0
1 -4 0
1 -5 0
1 -31 42 43 44 0
1 -32 43 0
1 -33 41 0
1 -34 44 0
1 -35 41 45 0
1 -16 41 43 45 0
1 -17 44 0
1 -18 42 44 0
1 -19 0
1 -20 43 45 0
1 -101 48 50 0
1 -102 0
1 -103 46 49 0
1 -104 47 49 0
1 -105 46 48 0
1 -21 101 102 105 0
1 -22 102 0
1 -23 0
1 -24 101 103 105 0
1 -25 104 0
1 -81 91 92 93 0
1 -82 0
1 -83 92 93 94 0
1 -84 94 0
1 -85 93 0
1 -126 101 103 104 105 0
1 -127 101 0
1 -128 105 0
1 -129 103 0
1 -130 102 0
1 -56 93 94 0
1 -57 91 95 0
1 -58 0
1 -59 91 94 95 0
1 -60 93 0
1 -116 102 103 0
1 -117 0
1 -118 105 0
1 -119 103 104 0
1 -120 103 104 105 0
1 -21 0
1 -22 87 0
1 -23 86 87 89 0
1 -24 90 0
1 -25 87 88 90 0
1 -26 11 12 15 0
1 -27 12 14 0
1 -28 14 0
1 -29 0
1 -30 11 12 0
1 -1 38 39 0
1 -2 0
1 -3 36 38 39 0
1 -4 37 39 40 0
1 -5 0
1 -106 35 0
1 -107 31 32 0
1 -108 31 32 35 0
1 -109 32 33 0
1 -110 0
1 -1 0
1 -2 81 83 0
1 -3 83 84 85 0
1 -4 82 0
1 -5 82 85 0
1 -61 0
1 -62 78 79 0
1 -63 77 79 80 0
1 -64 76 77 78 0
1 -65 0
1 -111 106 109 0
1 -112 106 108 109 0
1 -113 109 110 0
1 -114 0
1 -115 110 0
1 -46 21 24 0
1 -47 0
1 -48 25 0
1 -49 21 22 23 0
1 -50 22 24 0
1 -131 42 0
1 -132 41 42 43 45 0
1 -133 41 0
1 -134 42 0
1 -135 44 0
1 -21 124 0
1 -22 0
1 -23 124 125 0
1 -24 122 123 0
1 -25 121 122 124 0
1 -136 36 38 0
1 -137 37 39 40 0
1 -138 0
1 -139 37 39 40 0
1 -140 0
1 -51 0
1 -52 65 0
1 -53 62 64 65 0
1 -54 61 63 64 0
1 -55 65 0
1 -11 16 18 20 0
1 -12 20 0
1 -13 0
1 -14 20 0
1 -15 17 19 20 0
1 -41 1 3 0
1 -42 2 0
1 -43 1 2 5 0
1 -44 0
1 -45 3 5 0
1 -21 36 37 40 0
1 -22 38 39 0
1 -23 0
1 -24 0
1 -25 36 37 40 0
1 -76 67 69 0
1 -77 66 68 70 0
1 -78 69 0
1 -79 68 0
1 -80 70 0
1 -96 32 33 0
1 -97 31 35 0
1 -98 0
1 -99 31 33 0
1 -100 34 35 0
1 -36 128 129 130 0
1 -37 126 130 0
1 -38 0
1 -39 129 130 0
1 -40 127 0
1 -16 63 65 0
1 -17 61 63 0
1 -18 63 0
1 -19 0
1 -20 62 63 64 0
1 -91 46 47 49 0
1 -92 47 0
1 -93 48 49 0
1 -94 47 50 0
1 -95 0
1 -76 0
1 -77 72 0
1 -78 73 75 0
1 -79 71 75 0
1 -80 72 73 74 0
1 -11 41 0
1 -12 43 0
1 -13 44 45 0
1 -14 42 44 45 0
1 -15 42 0
1 -126 11 12 0
1 -127 11 13 14 0
1 -128 15 0
1 -129 13 0
1 -130 12 0
1 -61 83 0
1 -62 82 0
1 -63 85 0
1 -64 81 84 85 0
1 -65 81 84 0
1 -96 0
1 -97 28 0
1 -98 26 27 30 0
1 -99 27 30 0
1 -100 26 29 0
1 -31 17 19 20 0
1 -32 0
1 -33 16 0
1 -34 16 17 0
1 -35 16 18 0
1 -86 59 0
1 -87 57 0
1 -88 59 0
1 -89 56 58 60 0
1 -90 56 60 0
1 -101 107 110 0
1 -102 107 108 109 0
1 -103 0
1 -104 106 110 0
1 -105 108 0
1 -1 64 0
1 -2 62 63 0
1 -3 61 62 65 0
1 -4 63 0
1 -5 61 0
1 -51 48 0
1 -52 46 48 0
1 -53 0
1 -54 46 47 50 0
1 -55 48 49 0
1 -41 136 138 0
1 -42 136 138 0
1 -43 0
1 -44 139 0
1 -45 137 138 140 0
1 -131 0
1 -132 32 35 0
1 -133 32 34 0
1 -134 33 0
1 -135 32 33 35 0
1 -101 99 0
1 -102 99 0
1 -103 0
1 -104 97 98 100 0
1 -105 96 97 98 0
1 -26 107 108 109 0
1 -27 0
1 -28 108 109 110 0
1 -29 110 0
1 -30 109 0
1 -101 123 124 0
1 -102 122 123 0
1 -103 123 125 0
1 -104 0
1 -105 121 125 0
1 -76 3 4 0
1 -77 4 5 0
1 -78 1 3 0
1 -79 0
1 -80 2 5 0
1 -96 48 49 0
1 -97 49 50 0
1 -98 46 48 0
1 -99 47 50 0
1 -100 0
1 -81 0
1 -82 16 17 19 0
1 -83 0
1 -84 16 17 19 20 0
1 -85 16 0
1 -26 56 57 0
1 -27 58 0
1 -28 0
1 -29 59 60 0
1 -30 56 59 60 0
1 -56 32 35 0
1 -57 34 0
1 -58 35 0
1 -59 0
1 -60 31 32 33 34 0
1 -36 76 77 79 80 0
1 -37 79 0
1 -38 0
1 -39 77 78 0
1 -40 79 0
1 -6 41 43 45 0
1 -7 42 43 0
1 -8 42 45 0
1 -9 44 0
1 -10 0
1 -16 21 24 0
1 -17 0
1 -18 21 22 25 0
1 -19 23 24 0
1 -20 22 0
1 -46 16 18 19 20 0
1 -47 18 0
1 -48 16 0
1 -49 17 0
1 -50 20 0
1 -11 107 109 0
1 -12 108 109 110 0
1 -13 106 0
1 -14 110 0
1 -15 106 0
1 -51 2 3 4 0
1 -52 1 0
1 -53 5 0
1 -54 2 4 0
1 -55 3 0
1 -101 45 0
1 -102 41 42 0
1 -103 41 42 43 0
1 -104 43 45 0
1 -105 0
1 -61 72 74 0
1 -62 71 72 73 0
1 -63 71 74 75 0
1 -64 0
1 -65 0
1 -31 101 0
1 -32 102 103 104 0
1 -33 0
1 -34 102 104 105 0
1 -35 104 0
1 -26 46 0
1 -27 0
1 -28 46 47 49 0
1 -29 48 0
1 -30 47 48 49 0
1 -21 26 27 0
1 -22 26 30 0
1 -23 28 29 30 0
1 -24 0
1 -25 28 0
1 -16 29 0
1 -17 26 29 0
1 -18 30 0
1 -19 26 27 28 29 0
1 -20 0
1 -66 46 0
1 -67 50 0
1 -68 46 47 49 0
1 -69 47 49 50 0
1 -70 0
1 -56 0
1 -57 37 38 39 40 0
1 -58 38 0
1 -59 36 38 0
1 -60 38 0
1 -36 0
1 -37 31 33 34 0
1 -38 31 32 33 0
1 -39 34 0
1 -40 32 0
1 -26 6 7 0
1 -27 10 0
1 -28 9 10 0
1 -29 7 9 10 0
1 -30 0
1 -116 121 123 0
1 -117 122 123 124 0
1 -118 122 124 0
1 -119 0
1 -120 121 0
1 -26 65 0
1 -27 0
1 -29 65 0
1 -30 62 0
1 -116 106 109 110 0
1 -117 107 108 0
1 -118 107 0
1 -119 0
1 -120 109 110 0
1 -26 122 0
1 -27 121 124 0
1 -28 122 123 125 0
1 -29 123 125 0
1 -30 0
1 -51 16 0
1 -52 16 19 0
1 -53 0
1 -54 17 19 0
1 -55 17 18 20 0
1 -36 27 30 0
1 -37 26 29 0
1 -38 26 0
1 -39 28 29 0
1 -40 27 0
1 -61 31 33 34 0
1 -62 0
1 -63 34 0
1 -64 31 33 0
1 -65 32 35 0
1 -41 37 39 0
1 -42 37 38 0
1 -43 36 39 0
1 -44 36 0
1 -45 40 0
1 -126 46 48 49 50 0
1 -127 0
1 -128 46 50 0
1 -129 50 0
1 -130 47 0
1 -21 11 12 14 0
1 -22 14 0
1 -23 12 0
1 -24 13 0
1 -25 12 15 0
1 -56 77 78 0
1 -57 77 79 80 0
1 -58 0
1 -59 76 77 0
1 -60 80 0
1 -131 130 0
1 -132 0
1 -133 0
1 -134 126 128 129 0
1 -135 126 127 128 130 0
1 -71 33 34 0
1 -72 31 0
1 -73 0
1 -74 31 32 35 0
1 -75 33 35 0
1 -116 111 114 0
1 -117 111 114 0
1 -118 0
1 -119 111 112 113 0
1 -120 115 0
1 -116 28 29 30 0
1 -117 0
1 -118 28 30 0
1 -119 0
1 -120 26 28 30 0
1 -71 57 60 0
1 -72 0
1 -73 56 58 59 0
1 -74 56 0
1 -75 57 60 0
1 -31 0
1 -32 11 12 13 0
1 -33 13 0
1 -34 14 15 0
1 -35 14 15 0
1 -86 62 0
1 -87 64 0
1 -88 62 0
1 -89 63 0
1 -90 61 62 64 65 0
1 -76 0
1 -77 0
1 -78 32 34 35 0
1 -79 31 33 35 0
1 -80 33 35 0
1 -56 49 50 0
1 -57 48 0
1 -58 49 0
1 -59 46 47 0
1 -60 46 47 0
1 -36 117 120 0
1 -37 117 0
1 -38 116 118 0
1 -39 0
1 -40 117 119 120 0
1 -31 94 0
1 -32 92 93 95 0
1 -33 93 0
1 -34 95 0
1 -35 91 94 0
1 -66 27 0
1 -67 27 28 30 0
1 -68 26 0
1 -69 26 29 0
1 -70 30 0
1 -51 39 40 0
1 -52 38 0
1 -53 40 0
1 -54 36 38 0
1 -55 37 39 0
1 -21 41 42 44 0
1 -22 42 44 45 0
1 -23 0
1 -24 0
1 -25 41 44 0
1 -21 118 0
1 -22 117 119 0
1 -23 0
1 -24 116 117 118 119 0
1 -25 116 0
1 -81 22 23 24 25 0
1 -82 23 0
1 -83 0
1 -84 25 0
1 -85 21 25 0
1 -71 46 47 48 49 0
1 -72 50 0
1 -73 47 0
1 -74 50 0
1 -75 46 0
1 -66 62 63 64 0
1 -67 63 64 0
1 -68 0
1 -69 61 62 65 0
1 -70 0
1 -31 0
1 -32 46 0
1 -33 49 0
1 -34 46 0
1 -126 43 0
1 -127 41 45 0
1 -128 41 42 0
1 -129 44 45 0
1 -130 44 0
1 -76 49 0
1 -77 46 50 0
1 -78 49 0
1 -79 47 48 49 0
1 -80 48 0
1 -111 21 22 0
1 -112 25 0
1 -113 21 0
1 -114 23 24 0
1 -115 22 25 0
1 -121 113 0
1 -122 113 0
1 -123 114 0
1 -124 111 112 0
1 -125 111 112 115 0
1 -36 121 125 0
1 -37 121 0
1 -38 122 123 124 0
1 -39 0
1 -40 122 124 0
1 -11 96 97 98 100 0
1 -12 100 0
1 -13 97 100 0
1 -14 0
1 -15 99 0
1 -36 47 48 49 50 0
1 -37 47 0
1 -38 0
1 -39 46 0
1 -40 46 50 0
1 -86 31 0
1 -87 32 35 0
1 -88 0
1 -89 33 35 0
1 -90 32 33 35 0
1 -106 37 38 0
1 -107 40 0
1 -108 38 39 0
1 -109 0
1 -110 37 38 40 0
1 -66 37 38 39 0
1 -67 38 0
1 -68 0
1 -69 36 37 39 0
1 -70 40 0
1 -31 136 138 139 140 0
1 -32 0
1 -33 139 0
1 -34 137 140 0
1 -35 139 0
